proyfinal/src/viki/013/andrea/andrea-localstore/experimentInOfficeAgust.take6/worker_11/1ea37ffa-5b40-4caf-8f38-b38a25423b28.als.cnf.out
Reading from standard input... Use '--help' for help.
============================[ Problem Statistics ]=============================
|                                                                             |
|  Number of variables:         87638                                         |
|  Number of clauses:          161767                                         |
|  Parse time:                   0.03 s                                       |
|                                                                             |
============================[ Search Statistics ]==============================
| Conflicts |          ORIGINAL         |          LEARNT          | Progress |
|           |    Vars  Clauses Literals |    Limit  Clauses Lit/Cl |          |
===============================================================================
|       100 |   62278   104840   261936 |    38441      100      8 | 28.937 % |
|       250 |   62278   104840   261936 |    42285      250     47 | 28.937 % |
|       475 |   62277   104796   261846 |    46514      474     61 | 28.938 % |
|       812 |   62277   104796   261846 |    51165      811     53 | 28.938 % |
|      1318 |   62277   104796   261846 |    56281     1317    105 | 28.938 % |
|      2077 |   62242   104730   261693 |    61910     2074    110 | 28.978 % |
|      3216 |   62203   104500   261148 |    68101     2498     93 | 29.023 % |
|      4924 |   62203   104500   261148 |    74911     4206     90 | 29.023 % |
|      7486 |   62203   104500   261148 |    82402     6768     88 | 29.023 % |
===============================================================================
restarts              : 39
conflicts             : 9302           (6320 /sec)
decisions             : 33123          (0.00 % random) (22506 /sec)
propagations          : 15081562       (10247360 /sec)
conflict literals     : 769552         (52.76 % deleted)
Memory used           : 30.25 MB
CPU time              : 1.47175 s

UNSATISFIABLE
